25 40
1 2 4
1 6 2
2 3 3
2 7 2
3 4 1
3 8 2
4 5 5
4 9 5
5 10 5
6 7 5
6 11 2
7 8 1
7 12 4
8 9 2
8 13 2
9 10 5
9 14 2
10 15 2
11 12 3
11 16 5
12 13 2
12 17 5
13 14 4
13 18 3
14 15 5
14 19 5
15 20 1
16 17 1
16 21 3
17 18 5
17 22 4
18 19 4
18 23 5
19 20 4
19 24 5
20 25 3
21 22 3
22 23 2
23 24 1
24 25 3
